teachers = 5;
timeslots = 9;

solutions = 61;

solution_lab = [
1, 1, 1, 1, 1, 1, 1, 1, 1, 1, 1, 1, 1,
2, 2, 2, 2, 2, 2,
3, 3,
4, 4, 4, 4, 4, 4, 4, 4, 4,
5, 5, 5, 5, 5, 5, 5, 5, 5, 5, 5, 5, 5, 5, 5, 5, 5,
6, 6, 6, 6, 6, 6, 6, 6, 6, 6, 6, 6, 6, 6
];

solution_group = [
{1}, {2,3}, {4,5}, {6}, {7, 8}, {9, 10}, {11}, {12}, {13}, {14,15}, {16,17}, {18}, {19},
{20,3}, {21,22}, {23}, {2}, {7, 8}, {11},
{1}, {24},
{23}, {2, 3}, {6}, {18, 25}, {26, 27}, {7, 8}, {11}, {28}, {29, 30},
{1}, {23}, {2, 3}, {6}, {18, 25}, {26, 9}, {7, 8}, {31, 32}, {33}, {10}, {11}, {13}, {28}, {14,15}, {16,17}, {19}, {29, 30},
{1}, {23}, {2, 3}, {27}, {6}, {7, 8}, {18, 25}, {33}, {10}, {11}, {13}, {28}, {19}, {29, 30}
];


